Timesteps: 1
s UNSATISFIABLE
real 0.13
user 0.01
sys 0.00
Timesteps: 2
s UNSATISFIABLE
real 0.19
user 0.03
sys 0.00
Timesteps: 3
s UNSATISFIABLE
real 0.15
user 0.06
sys 0.00
Timesteps: 4
s UNSATISFIABLE
real 0.15
user 0.09
sys 0.00
Timesteps: 5
s UNSATISFIABLE
real 0.25
user 0.16
sys 0.01
Timesteps: 6
s UNSATISFIABLE
real 0.43
user 0.31
sys 0.00
Timesteps: 7
s UNSATISFIABLE
real 0.62
user 0.51
sys 0.01
Timesteps: 8
s UNSATISFIABLE
real 1.18
user 1.03
sys 0.01
Timesteps: 9
s UNSATISFIABLE
real 4.43
user 4.25
sys 0.02
Timesteps: 10
s UNSATISFIABLE
real 9.50
user 9.28
sys 0.01
Timesteps: 11
s UNSATISFIABLE
real 10.22
user 9.99
sys 0.03
Timesteps: 12
s UNSATISFIABLE
real 10.66
user 10.40
sys 0.03
Timesteps: 13
s UNSATISFIABLE
real 11.07
user 10.77
sys 0.03
Timesteps: 14
s UNSATISFIABLE
real 11.63
user 11.34
sys 0.04
Timesteps: 15
s UNSATISFIABLE
real 13.64
user 13.31
sys 0.04
Timesteps: 16
s UNSATISFIABLE
real 13.72
user 13.39
sys 0.03
Timesteps: 17
s UNSATISFIABLE
real 21.28
user 20.89
sys 0.06
Timesteps: 18
s UNSATISFIABLE
real 22.92
user 22.51
sys 0.05
Timesteps: 19
s UNSATISFIABLE
real 25.63
user 25.19
sys 0.07
Timesteps: 20
s UNSATISFIABLE
real 28.83
user 28.34
sys 0.08
Timesteps: 21
s UNSATISFIABLE
real 42.69
user 42.13
sys 0.09
Timesteps: 22
s UNSATISFIABLE
real 54.04
user 53.41
sys 0.11
Timesteps: 23
s UNSATISFIABLE
real 77.64
user 76.86
sys 0.15
Timesteps: 24
s UNSATISFIABLE
real 109.65
user 108.69
sys 0.17
Timesteps: 25
s UNSATISFIABLE
real 132.28
user 131.19
sys 0.20
Timesteps: 26
s UNSATISFIABLE
real 143.18
user 142.05
sys 0.22
Timesteps: 27
s UNSATISFIABLE
real 173.88
user 172.58
sys 0.27
Timesteps: 28
s UNSATISFIABLE
real 319.02
user 317.06
sys 0.37
Timesteps: 29
s UNSATISFIABLE
real 504.21
user 501.43
sys 0.49
Timesteps: 30
s UNSATISFIABLE
real 641.01
user 636.85
sys 0.61
Timesteps: 31
s UNSATISFIABLE
real 603.41
user 599.20
sys 0.67
Timesteps: 32
